
        $ From http://www.csplib.org/Problems/prob009/data/helmut.pdf
        $ Problem number 120
        $ Sequence length : 25
        language ESSENCE' 1.0
        letting sizemaster be 392
        letting sizes be sequence(10,12,14,16,19,21,25,27,31,35,39,41,51,52,54,55,73,92,98,115,121,123,129,148,171)
        